Version identifier: 22.1.0.0 | 2022-03-09 | 1a383f8ce
CPXPARAM_Read_DataCheck                          1
1 of 1 MIP starts provided solutions.
MIP start 'm1' defined initial solution with objective 54.0000.
Tried aggregator 3 times.
MIP Presolve eliminated 68194 rows and 6536 columns.
MIP Presolve modified 868 coefficients.
Aggregator did 62826 substitutions.
Reduced MIP has 7343 rows, 64666 columns, and 136796 nonzeros.
Reduced MIP has 64632 binaries, 34 generals, 0 SOSs, and 0 indicators.
Presolve time = 0.74 sec. (742.24 ticks)
Tried aggregator 1 time.
Detecting symmetries...
Reduced MIP has 7343 rows, 64666 columns, and 136796 nonzeros.
Reduced MIP has 64632 binaries, 34 generals, 0 SOSs, and 0 indicators.
Presolve time = 0.13 sec. (99.99 ticks)
Probing fixed 51 vars, tightened 0 bounds.
Probing changed sense of 14 constraints.
Probing time = 0.13 sec. (16.17 ticks)
Clique table members: 131187.
MIP emphasis: balance optimality and feasibility.
MIP search method: dynamic search.
Parallel mode: deterministic, using up to 8 threads.
Root relaxation solution time = 0.69 sec. (487.59 ticks)

        Nodes                                         Cuts/
   Node  Left     Objective  IInf  Best Integer    Best Bound    ItCnt     Gap

*     0+    0                           54.0000        0.0000           100.00%
      0     0       34.3891  5395       54.0000       34.3891       25   36.32%
      0     0        cutoff             54.0000                     45    0.00%
Elapsed time = 4.47 sec. (3245.51 ticks, tree = 0.01 MB, solutions = 1)

Zero-half cuts applied:  11
Gomory fractional cuts applied:  20

Root node processing (before b&c):
  Real time             =    4.48 sec. (3250.05 ticks)
Parallel b&c, 8 threads:
  Real time             =    0.00 sec. (0.00 ticks)
  Sync time (average)   =    0.00 sec.
  Wait time (average)   =    0.00 sec.
                          ------------
Total (root+branch&cut) =    4.48 sec. (3250.05 ticks)
